==> MAXTIME              = 3600
==> OUTPUTLOG            = 1
==> SBESTIMATE           = 1
FICO Xpress v8.5.9, solve started 23:48:51, Jun 8, 2019
Maximizing MILP Seating model
Original problem has:
       230 rows          300 cols         7440 elements       300 globals
Presolved problem has:
       103 rows          204 cols         2431 elements       198 globals
LP relaxation tightened
Will try to keep branch and bound tree memory usage below 7.2GB
 *** Heuristic solution found:    22.000000      Time: 0 ***
Starting concurrent solve with dual

 Concurrent-Solve,   0s
            Dual        
    objective   dual inf
 D  102.00000   .0000000
------- optimal --------
Concurrent statistics:
      Dual: 34 simplex iterations, 0.00s
Optimal solution found
 
   Its         Obj Value      S   Ninf  Nneg   Sum Dual Inf  Time
    34        102.000000      D      0     0        .000000     0
Dual solved problem
  34 simplex iterations in 0s

Final objective                         : 1.020000000000000e+02
  Max primal violation      (abs / rel) : 1.110e-16 / 9.869e-17
  Max dual violation        (abs / rel) :       0.0 /       0.0
  Max complementarity viol. (abs / rel) :       0.0 /       0.0
All values within tolerances

Starting root cutting & heuristics
 
 Its Type    BestSoln    BestBound   Sols    Add    Del     Gap     GInf   Time
   1  K     22.000000   102.000000      1     99      0   78.43%      29      0
   2  K     22.000000   102.000000      1    111     81   78.43%      43      0
   3  K     22.000000   102.000000      1     92    101   78.43%      48      0
b           28.000000   102.000000      2                 72.55%       0      0
   4  K     28.000000   102.000000      2     87     94   72.55%      35      0
   5  K     28.000000   102.000000      2    100     83   72.55%      49      0
   6  K     28.000000   102.000000      2     93     97   72.55%      47      0
   7  K     28.000000   102.000000      2     89     88   72.55%      58      0
b           35.000000   102.000000      3                 65.69%       0      0
   8  K     35.000000   102.000000      3     81     91   65.69%      37      0
   9  K     35.000000   102.000000      3     95     87   65.69%      48      0
  10  K     35.000000   102.000000      3     97     89   65.69%      58      0
  11  K     35.000000   102.000000      3     83     86   65.69%      67      0
  12  K     35.000000   102.000000      3     93     82   65.69%      72      0
  13  K     35.000000   102.000000      3     87     85   65.69%      76      0
  14  K     35.000000   102.000000      3      2     83   65.69%      39      0
  15  K     35.000000   102.000000      3      1      7   65.69%      39      0
  16  K     35.000000   102.000000      3      1     13   65.69%      39      0
  17  K     35.000000   102.000000      3     96      8   65.69%      58      0
  18  K     35.000000   102.000000      3      2     91   65.69%      39      0
b           47.000000   102.000000      4                 53.92%       0      0
  19  K     47.000000   102.000000      4     93     14   53.92%      52      0
  20  K     47.000000   102.000000      4     99    150   53.92%      59      0
  21  G     47.000000   102.000000      4     39     31   53.92%      41      1
  22  G     47.000000   102.000000      4     70    110   53.92%      55      1
Heuristic search started
Heuristic search stopped
 
Cuts in the matrix         : 39
Cut elements in the matrix : 1106
 
Starting tree search.
Deterministic mode with up to 4 running threads and up to 8 tasks.
 
    Node     BestSoln    BestBound   Sols Active  Depth     Gap     GInf   Time
       1    47.000000   102.000000      4      2      1   53.92%      45      1
       2    47.000000   102.000000      4      2      2   53.92%      57      1
       3    47.000000   102.000000      4      2      3   53.92%      49      1
       4    47.000000   102.000000      4      2      4   53.92%      48      1
       5    47.000000   102.000000      4      5      2   53.92%      34      1
       6    47.000000   102.000000      4      5      3   53.92%      30      1
       7    47.000000   102.000000      4      5      3   53.92%      48      1
       8    47.000000   102.000000      4      5      4   53.92%      30      1
       9    47.000000   102.000000      4      8      4   53.92%      50      1
      10    47.000000   102.000000      4      8      5   53.92%      38      1
      20    47.000000   102.000000      4     17      7   53.92%      39      1
      35    47.000000   102.000000      4     17     16   53.92%      49      1
      46    47.000000   102.000000      4     17     23   53.92%      18      1
      62    47.000000   102.000000      4     28     20   53.92%      20      1
      77    47.000000   102.000000      4     28     12   53.92%      26      1
      90    47.000000   102.000000      4     28     16   53.92%      46      1
     110    47.000000   102.000000      4     28     18   53.92%      35      1
     218    47.000000   102.000000      4     48     16   53.92%      40      1
a    254    51.000000   102.000000      5     48     21   50.00%       0      1
B&B tree size: 1.6MB total
 
    Node     BestSoln    BestBound   Sols Active  Depth     Gap     GInf   Time
     331    51.000000   101.716140      5     69     16   49.86%       3      1
     436    51.000000   101.716140      5     69     22   49.86%      14      1
     545    51.000000   101.716140      5    101     16   49.86%      46      1
     663    51.000000   101.716140      5    136     24   49.86%       7      1
     768    51.000000   101.716140      5    136     16   49.86%      40      2
     877    51.000000   101.716140      5    149     16   49.86%      34      2
     977    51.000000   101.716140      5    250     20   49.86%      32      2
    1084    51.000000   101.228222      5    303     16   49.62%      43      2
    1191    51.000000   101.228222      5    335     26   49.62%      32      2
    1298    51.000000   100.031745      5    400     23   49.02%      23      2
    1421    51.000000   100.031745      5    400     31   49.02%      10      2
    1527    51.000000   100.031745      5    400     22   49.02%      39      2
a   1593    58.000000   100.031745      6    400     29   42.02%       0      2
a   1635    60.000000   100.031745      7    400     21   40.02%       0      2
    1638    60.000000   100.031745      7    400     21   40.02%       9      2
    1744    60.000000   100.031745      7    365     26   40.02%      33      2
    1850    60.000000   100.031745      7    365     28   40.02%      29      2
    1963    60.000000   100.031745      7    365     16   40.02%      27      2
    2064    60.000000   100.031745      7    365     15   40.02%      33      3
    2171    60.000000    99.758890      7    435     23   39.85%      40      3
B&B tree size: 6.0MB total
 
    Node     BestSoln    BestBound   Sols Active  Depth     Gap     GInf   Time
    2274    60.000000    99.758890      7    504     21   39.85%      33      3
    2380    60.000000    99.758890      7    504     21   39.85%      36      3
    2498    60.000000    99.758890      7    504     23   39.85%      21      3
    2599    60.000000    99.758890      7    504     18   39.85%      35      3
    2705    60.000000    99.758890      7    504     16   39.85%      25      3
    2818    60.000000    99.758890      7    654     15   39.85%      23      3
    2935    60.000000    99.758890      7    654     26   39.85%       8      3
    3048    60.000000    99.758890      7    654     14   39.85%      27      3
    3154    60.000000    99.758890      7    654     16   39.85%      30      3
    3271    60.000000    99.758890      7    654     13   39.85%      33      3
    3384    60.000000    99.758890      7    703     19   39.85%      43      3
    3501    60.000000    99.758890      7    703     13   39.85%      37      3
    3603    60.000000    99.758890      7    703     21   39.85%      37      4
    3706    60.000000    99.758890      7    703     16   39.85%      39      4
    3811    60.000000    99.758890      7    703     23   39.85%      29      4
    3919    60.000000    99.758890      7    703     19   39.85%      34      4
    4038    60.000000    99.758890      7    703     30   39.85%      30      4
    4142    60.000000    99.758890      7    703     14   39.85%      31      4
    4244    60.000000    97.835235      7    824     18   38.67%      44      4
    4352    60.000000    97.835235      7    824     16   38.67%      33      4
B&B tree size: 10MB total
 
    Node     BestSoln    BestBound   Sols Active  Depth     Gap     GInf   Time
    4457    60.000000    97.835235      7    903     20   38.67%      34      4
    4576    60.000000    97.835235      7    903     28   38.67%      29      4
    4677    60.000000    94.601193      7   1147     20   36.58%      29      4
    4778    60.000000    94.601193      7   1147     17   36.58%      44      4
    4882    60.000000    94.601193      7   1147     23   36.58%      24      4
    4983    60.000000    94.601193      7   1256     16   36.58%      42      4
    5099    60.000000    94.601193      7   1256     22   36.58%      37      5
    5214    60.000000    94.601193      7   1385     16   36.58%      38      5
    5314    60.000000    94.601193      7   1385     19   36.58%      38      5
    5423    60.000000    94.601193      7   1461     19   36.58%      27      5
    5533    60.000000    94.601193      7   1461     18   36.58%      45      5
    5635    60.000000    94.601193      7   1494     20   36.58%      37      5
    5744    60.000000    94.601193      7   1524     14   36.58%      54      5
    5845    60.000000    94.601193      7   1524     22   36.58%      22      5
    5952    60.000000    94.601193      7   1538     18   36.58%      41      5
    6060    60.000000    94.601193      7   1538     21   36.58%      30      5
    6164    60.000000    94.601193      7   1538     16   36.58%      36      5
    6273    60.000000    94.601193      7   1538     27   36.58%      21      5
    6388    60.000000    94.601193      7   1538     23   36.58%      34      5
    6508    60.000000    94.601193      7   1538     26   36.58%      32      5
B&B tree size: 14MB total
 
    Node     BestSoln    BestBound   Sols Active  Depth     Gap     GInf   Time
    6616    60.000000    94.601193      7   1538     19   36.58%      19      6
    6735    60.000000    94.601193      7   1560     21   36.58%      24      6
    6841    60.000000    94.601193      7   1560     24   36.58%      25      6
    6958    60.000000    94.601193      7   1633     22   36.58%      25      6
    7073    60.000000    94.601193      7   1633     14   36.58%      45      6
    7184    60.000000    94.601193      7   1633     21   36.58%      31      6
    7295    60.000000    94.601193      7   1663     13   36.58%      36      6
    7402    60.000000    94.601193      7   1663     16   36.58%      40      6
    7516    60.000000    94.601193      7   1703     19   36.58%      15      6
    7630    60.000000    94.601193      7   1703     23   36.58%      20      6
    7735    60.000000    94.601193      7   1703     19   36.58%      10      6
    7843    60.000000    94.601193      7   1761     19   36.58%      23      6
    7965    60.000000    94.601193      7   1851     22   36.58%      23      6
    8069    60.000000    94.601193      7   1851     27   36.58%      21      6
    8176    60.000000    94.601193      7   1851     19   36.58%      17      7
    8286    60.000000    94.601193      7   1851     16   36.58%      38      7
    8399    60.000000    94.601193      7   1891     25   36.58%      17      7
    8514    60.000000    94.601193      7   1891     26   36.58%      22      7
    8627    60.000000    94.601193      7   1943     16   36.58%      36      7
    8734    60.000000    87.304425      7   2061     16   31.27%      37      7
B&B tree size: 17MB total
 
    Node     BestSoln    BestBound   Sols Active  Depth     Gap     GInf   Time
    8848    60.000000    87.304425      7   2061     19   31.27%      39      7
    8962    60.000000    87.304425      7   2061     21   31.27%      13      7
    9068    60.000000    87.304425      7   2061     17   31.27%      41      7
    9171    60.000000    87.304425      7   2121     20   31.27%      27      7
    9280    60.000000    87.304425      7   2181     18   31.27%      44      7
    9381    60.000000    87.304425      7   2181     18   31.27%      25      7
    9481    60.000000    87.304425      7   2181     23   31.27%      37      7
    9581    60.000000    87.304425      7   2194     18   31.27%      29      7
    9691    60.000000    87.304425      7   2244     16   31.27%      40      8
    9791    60.000000    87.304425      7   2244     21   31.27%      33      8
    9897    60.000000    87.304425      7   2339     24   31.27%      34      8
   10000    60.000000    87.304425      7   2339     23   31.27%      23      8
   11014    60.000000    84.543702      7   2425     21   29.03%      37      8
   12030    60.000000    82.656588      7   2563     18   27.41%      37      9
   13066    60.000000    82.527928      7   2733     15   27.30%      31     10
   14066    60.000000    81.995063      7   2908     16   26.82%      41     11
   15078    60.000000    80.972921      7   3004     24   25.90%      18     11
   16085    60.000000    80.266015      7   3042     20   25.25%      31     12
   17096    60.000000    79.646811      7   3134     26   24.67%      29     12
   18107    60.000000    79.390832      7   3184     25   24.42%      29     13
B&B tree size: 30MB total
 
    Node     BestSoln    BestBound   Sols Active  Depth     Gap     GInf   Time
   19108    60.000000    78.892075      7   3267     18   23.95%      46     14
   20108    60.000000    78.021254      7   3322     21   23.10%      29     14
   21108    60.000000    78.021254      7   3346     17   23.10%      50     15
   22115    60.000000    78.000000      7   3383     18   23.08%      34     15
   23117    60.000000    76.905806      7   3369     19   21.98%      36     16
   24117    60.000000    76.182473      7   3372     22   21.24%      12     16
   25126    60.000000    75.770042      7   3371     23   20.81%      15     17
   26130    60.000000    75.539080      7   3363     19   20.57%      19     18
   27131    60.000000    75.046593      7   3334     17   20.05%      35     18
   28146    60.000000    74.948747      7   3317     24   19.95%      26     18
   29148    60.000000    74.192415      7   3259     22   19.13%      28     19
   30160    60.000000    74.000000      7   3223     22   18.92%      31     19
   31162    60.000000    74.000000      7   3230     15   18.92%      22     20
   32167    60.000000    74.000000      7   3197     24   18.92%      32     20
   33185    60.000000    73.000000      7   3180     27   17.81%      23     21
   34193    60.000000    72.333333      7   3083     22   17.05%      35     21
   35201    60.000000    71.875506      7   2962     21   16.52%      43     22
   36208    60.000000    71.339847      7   2875     21   15.90%      27     22
   37210    60.000000    71.000000      7   2797     23   15.49%      30     22
   38211    60.000000    70.380442      7   2649     21   14.75%      38     23
B&B tree size: 30MB total
 
    Node     BestSoln    BestBound   Sols Active  Depth     Gap     GInf   Time
   39216    60.000000    70.002829      7   2539     23   14.29%      39     23
   40216    60.000000    70.002829      7   2396     12   14.29%      25     24
   41219    60.000000    70.000000      7   2246     24   14.29%      23     24
   42221    60.000000    69.000000      7   2106     24   13.04%      18     24
   43223    60.000000    67.598261      7   1860     28   11.24%      25     25
   44225    60.000000    67.000000      7   1639     18   10.45%      31     25
   45225    60.000000    65.649427      7   1269     19    8.61%      40     26
   46226    60.000000    64.000000      7    772     19    6.25%      38     26
   47243    60.000000    62.017544      7    249     26    3.25%      19     26
 *** Search completed ***     Time:    26 Nodes:      47847
Number of integer feasible solutions found is 7
Best integer solution found is    60.000000
Best bound is    60.000000
Uncrunching matrix
